191
1 30 42200
2 48 35692
3 30 40513
4 38 28322
5 30 40799
6 45 16734
7 39 15732
8 42 12050
9 44 31183
10 30 20119
11 46 17944
12 45 27633
13 32 42327
14 41 34768
15 36 19859
16 36 41386
17 39 14167
18 33 26510
19 43 24456
20 43 13047
21 40 30026
22 43 23618
23 49 37095
24 44 30372
25 43 12790
26 43 33956
27 42 29239
28 43 14731
29 46 26583
30 48 30284
31 39 27937
32 42 28875
33 33 15560
34 43 27281
35 45 22848
36 33 38987
37 48 23282
38 32 28070
39 34 21544
40 32 31086
41 46 19193
42 49 27634
43 34 10420
44 32 22039
45 40 15205
46 36 14767
47 41 20883
48 35 13279
49 43 24910
50 48 28869
51 35 25365
52 35 17301
53 39 24139
54 35 16616
55 48 26673
56 45 41206
57 33 22428
58 49 36335
59 37 32474
60 43 26285
61 38 10901
62 32 30839
63 35 16260
-1 -1 -1